NAME /Users/henri/Research/solvers/instances/idol-instances/robust/collection/cbp_Subramanyam_et_al_2020/CapBud_N30_17/models/uncertain_technology_matrix/
ROWS
 N  OBJ
 L  capacity
 L  c_6680
 L  c_6681
 L  c_6682
 L  c_6683
 L  c_6684
 L  c_6685
 L  c_6686
 L  c_6687
 L  c_6688
 L  c_6689
 L  c_6690
 L  c_6691
 L  c_6692
 L  c_6693
 L  c_6694
 L  c_6695
 L  c_6696
 L  c_6697
 L  c_6698
 L  c_6699
 L  c_6700
 L  c_6701
 L  c_6702
 L  c_6703
 L  c_6704
 L  c_6705
 L  c_6706
 L  c_6707
 L  c_6708
 L  c_6709
COLUMNS
    MARKER    'MARKER'                 'INTORG'
    x_0        OBJ        1.49521
    x_0        c_6680     1
    x_0        capacity   0.299042
    x_1        OBJ        8.53487
    x_1        c_6681     1
    x_1        capacity   1.70697
    x_2        OBJ        8.77346
    x_2        c_6682     1
    x_2        capacity   1.75469
    x_3        OBJ        8.64981
    x_3        c_6683     1
    x_3        capacity   1.72996
    x_4        OBJ        7.62353
    x_4        c_6684     1
    x_4        capacity   1.52471
    x_5        OBJ        2.5469
    x_5        c_6685     1
    x_5        capacity   0.50938
    x_6        OBJ        6.92155
    x_6        c_6686     1
    x_6        capacity   1.38431
    x_7        OBJ        0.874267
    x_7        c_6687     1
    x_7        capacity   0.174853
    x_8        OBJ        6.4961
    x_8        c_6688     1
    x_8        capacity   1.29922
    x_9        OBJ        3.71174
    x_9        c_6689     1
    x_9        capacity   0.742349
    x_10       OBJ        6.81937
    x_10       c_6690     1
    x_10       capacity   1.36387
    x_11       OBJ        1.46505
    x_11       c_6691     1
    x_11       capacity   0.29301
    x_12       OBJ        8.80945
    x_12       c_6692     1
    x_12       capacity   1.76189
    x_13       OBJ        7.25412
    x_13       c_6693     1
    x_13       capacity   1.45082
    x_14       OBJ        9.38156
    x_14       c_6694     1
    x_14       capacity   1.87631
    x_15       OBJ        7.92092
    x_15       c_6695     1
    x_15       capacity   1.58418
    x_16       OBJ        5.58913
    x_16       c_6696     1
    x_16       capacity   1.11783
    x_17       OBJ        6.31269
    x_17       c_6697     1
    x_17       capacity   1.26254
    x_18       OBJ        3.35434
    x_18       c_6698     1
    x_18       capacity   0.670869
    x_19       OBJ        9.80747
    x_19       c_6699     1
    x_19       capacity   1.96149
    x_20       OBJ        2.97467
    x_20       c_6700     1
    x_20       capacity   0.594935
    x_21       OBJ        8.40981
    x_21       c_6701     1
    x_21       capacity   1.68196
    x_22       OBJ        7.54496
    x_22       c_6702     1
    x_22       capacity   1.50899
    x_23       OBJ        0.861421
    x_23       c_6703     1
    x_23       capacity   0.172284
    x_24       OBJ        9.17328
    x_24       c_6704     1
    x_24       capacity   1.83466
    x_25       OBJ        4.94432
    x_25       c_6705     1
    x_25       capacity   0.988864
    x_26       OBJ        6.58543
    x_26       c_6706     1
    x_26       capacity   1.31709
    x_27       OBJ        0.163954
    x_27       c_6707     1
    x_27       capacity   0.0327908
    x_28       OBJ        5.43874
    x_28       c_6708     1
    x_28       capacity   1.08775
    x_29       OBJ        1.11309
    x_29       c_6709     1
    x_29       capacity   0.222618
    y_0        OBJ        1.19617
    y_0        c_6680     1
    y_0        capacity   0.299042
    y_1        OBJ        6.82789
    y_1        c_6681     1
    y_1        capacity   1.70697
    y_2        OBJ        7.01877
    y_2        c_6682     1
    y_2        capacity   1.75469
    y_3        OBJ        6.91985
    y_3        c_6683     1
    y_3        capacity   1.72996
    y_4        OBJ        6.09882
    y_4        c_6684     1
    y_4        capacity   1.52471
    y_5        OBJ        2.03752
    y_5        c_6685     1
    y_5        capacity   0.50938
    y_6        OBJ        5.53724
    y_6        c_6686     1
    y_6        capacity   1.38431
    y_7        OBJ        0.699413
    y_7        c_6687     1
    y_7        capacity   0.174853
    y_8        OBJ        5.19688
    y_8        c_6688     1
    y_8        capacity   1.29922
    y_9        OBJ        2.9694
    y_9        c_6689     1
    y_9        capacity   0.742349
    y_10       OBJ        5.45549
    y_10       c_6690     1
    y_10       capacity   1.36387
    y_11       OBJ        1.17204
    y_11       c_6691     1
    y_11       capacity   0.29301
    y_12       OBJ        7.04756
    y_12       c_6692     1
    y_12       capacity   1.76189
    y_13       OBJ        5.8033
    y_13       c_6693     1
    y_13       capacity   1.45082
    y_14       OBJ        7.50525
    y_14       c_6694     1
    y_14       capacity   1.87631
    y_15       OBJ        6.33673
    y_15       c_6695     1
    y_15       capacity   1.58418
    y_16       OBJ        4.47131
    y_16       c_6696     1
    y_16       capacity   1.11783
    y_17       OBJ        5.05015
    y_17       c_6697     1
    y_17       capacity   1.26254
    y_18       OBJ        2.68347
    y_18       c_6698     1
    y_18       capacity   0.670869
    y_19       OBJ        7.84598
    y_19       c_6699     1
    y_19       capacity   1.96149
    y_20       OBJ        2.37974
    y_20       c_6700     1
    y_20       capacity   0.594935
    y_21       OBJ        6.72785
    y_21       c_6701     1
    y_21       capacity   1.68196
    y_22       OBJ        6.03597
    y_22       c_6702     1
    y_22       capacity   1.50899
    y_23       OBJ        0.689137
    y_23       c_6703     1
    y_23       capacity   0.172284
    y_24       OBJ        7.33862
    y_24       c_6704     1
    y_24       capacity   1.83466
    y_25       OBJ        3.95546
    y_25       c_6705     1
    y_25       capacity   0.988864
    y_26       OBJ        5.26834
    y_26       c_6706     1
    y_26       capacity   1.31709
    y_27       OBJ        0.131163
    y_27       c_6707     1
    y_27       capacity   0.0327908
    y_28       OBJ        4.35099
    y_28       c_6708     1
    y_28       capacity   1.08775
    y_29       OBJ        0.890473
    y_29       c_6709     1
    y_29       capacity   0.222618
    MARKER    'MARKER'                 'INTEND'
RHS
    RHS       capacity   84.7756
    RHS       c_6680     1
    RHS       c_6681     1
    RHS       c_6682     1
    RHS       c_6683     1
    RHS       c_6684     1
    RHS       c_6685     1
    RHS       c_6686     1
    RHS       c_6687     1
    RHS       c_6688     1
    RHS       c_6689     1
    RHS       c_6690     1
    RHS       c_6691     1
    RHS       c_6692     1
    RHS       c_6693     1
    RHS       c_6694     1
    RHS       c_6695     1
    RHS       c_6696     1
    RHS       c_6697     1
    RHS       c_6698     1
    RHS       c_6699     1
    RHS       c_6700     1
    RHS       c_6701     1
    RHS       c_6702     1
    RHS       c_6703     1
    RHS       c_6704     1
    RHS       c_6705     1
    RHS       c_6706     1
    RHS       c_6707     1
    RHS       c_6708     1
    RHS       c_6709     1
BOUNDS
 LI BND       x_0        0
 UI BND       x_0        1
 LI BND       x_1        0
 UI BND       x_1        1
 LI BND       x_2        0
 UI BND       x_2        1
 LI BND       x_3        0
 UI BND       x_3        1
 LI BND       x_4        0
 UI BND       x_4        1
 LI BND       x_5        0
 UI BND       x_5        1
 LI BND       x_6        0
 UI BND       x_6        1
 LI BND       x_7        0
 UI BND       x_7        1
 LI BND       x_8        0
 UI BND       x_8        1
 LI BND       x_9        0
 UI BND       x_9        1
 LI BND       x_10       0
 UI BND       x_10       1
 LI BND       x_11       0
 UI BND       x_11       1
 LI BND       x_12       0
 UI BND       x_12       1
 LI BND       x_13       0
 UI BND       x_13       1
 LI BND       x_14       0
 UI BND       x_14       1
 LI BND       x_15       0
 UI BND       x_15       1
 LI BND       x_16       0
 UI BND       x_16       1
 LI BND       x_17       0
 UI BND       x_17       1
 LI BND       x_18       0
 UI BND       x_18       1
 LI BND       x_19       0
 UI BND       x_19       1
 LI BND       x_20       0
 UI BND       x_20       1
 LI BND       x_21       0
 UI BND       x_21       1
 LI BND       x_22       0
 UI BND       x_22       1
 LI BND       x_23       0
 UI BND       x_23       1
 LI BND       x_24       0
 UI BND       x_24       1
 LI BND       x_25       0
 UI BND       x_25       1
 LI BND       x_26       0
 UI BND       x_26       1
 LI BND       x_27       0
 UI BND       x_27       1
 LI BND       x_28       0
 UI BND       x_28       1
 LI BND       x_29       0
 UI BND       x_29       1
 LI BND       y_0        0
 UI BND       y_0        1
 LI BND       y_1        0
 UI BND       y_1        1
 LI BND       y_2        0
 UI BND       y_2        1
 LI BND       y_3        0
 UI BND       y_3        1
 LI BND       y_4        0
 UI BND       y_4        1
 LI BND       y_5        0
 UI BND       y_5        1
 LI BND       y_6        0
 UI BND       y_6        1
 LI BND       y_7        0
 UI BND       y_7        1
 LI BND       y_8        0
 UI BND       y_8        1
 LI BND       y_9        0
 UI BND       y_9        1
 LI BND       y_10       0
 UI BND       y_10       1
 LI BND       y_11       0
 UI BND       y_11       1
 LI BND       y_12       0
 UI BND       y_12       1
 LI BND       y_13       0
 UI BND       y_13       1
 LI BND       y_14       0
 UI BND       y_14       1
 LI BND       y_15       0
 UI BND       y_15       1
 LI BND       y_16       0
 UI BND       y_16       1
 LI BND       y_17       0
 UI BND       y_17       1
 LI BND       y_18       0
 UI BND       y_18       1
 LI BND       y_19       0
 UI BND       y_19       1
 LI BND       y_20       0
 UI BND       y_20       1
 LI BND       y_21       0
 UI BND       y_21       1
 LI BND       y_22       0
 UI BND       y_22       1
 LI BND       y_23       0
 UI BND       y_23       1
 LI BND       y_24       0
 UI BND       y_24       1
 LI BND       y_25       0
 UI BND       y_25       1
 LI BND       y_26       0
 UI BND       y_26       1
 LI BND       y_27       0
 UI BND       y_27       1
 LI BND       y_28       0
 UI BND       y_28       1
 LI BND       y_29       0
 UI BND       y_29       1
ENDATA
